37
1 0 14
2 0 10
2 1 6
3 0 4
3 1 2
3 2 4
4 0 11
4 1 16
4 2 3
4 3 11
5 0 3
5 1 13
5 2 17
5 3 12
5 4 2
6 0 1
6 1 12
6 2 15
6 3 4
6 4 18
6 5 12
7 0 18
7 1 18
7 2 15
7 3 5
7 4 4
7 5 7
7 6 1
8 0 3
8 1 3
8 2 14
8 3 2
8 4 7
8 5 1
8 6 13
8 7 8
9 0 20
9 1 17
9 2 5
9 3 20
9 4 17
9 5 9
9 6 19
9 7 11
9 8 20
10 0 18
10 1 4
10 2 4
10 3 14
10 4 11
10 5 3
10 6 18
10 7 18
10 8 17
10 9 5
11 0 2
11 1 7
11 2 16
11 3 14
11 4 19
11 5 7
11 6 7
11 7 5
11 8 7
11 9 17
11 10 11
12 0 11
12 1 16
12 2 1
12 3 17
12 4 5
12 5 13
12 6 4
12 7 15
12 8 7
12 9 7
12 10 16
12 11 15
13 0 3
13 1 14
13 2 10
13 3 1
13 4 9
13 5 19
13 6 18
13 7 4
13 8 5
13 9 2
13 10 19
13 11 18
13 12 11
14 0 16
14 1 20
14 2 5
14 3 13
14 4 15
14 5 14
14 6 8
14 7 10
14 8 8
14 9 10
14 10 8
14 11 4
14 12 17
14 13 2
15 0 12
15 1 2
15 2 7
15 3 18
15 4 2
15 5 16
15 6 8
15 7 5
15 8 16
15 9 2
15 10 11
15 11 8
15 12 20
15 13 13
15 14 13
16 0 17
16 1 10
16 2 20
16 3 19
16 4 16
16 5 8
16 6 3
16 7 13
16 8 20
16 9 5
16 10 6
16 11 7
16 12 7
16 13 14
16 14 2
16 15 2
17 0 12
17 1 16
17 2 5
17 3 19
17 4 19
17 5 14
17 6 19
17 7 18
17 8 2
17 9 11
17 10 3
17 11 15
17 12 9
17 13 19
17 14 9
17 15 10
17 16 16
18 0 5
18 1 10
18 2 17
18 3 3
18 4 3
18 5 18
18 6 9
18 7 8
18 8 17
18 9 1
18 10 14
18 11 11
18 12 9
18 13 1
18 14 20
18 15 5
18 16 14
18 17 4
19 0 1
19 1 17
19 2 16
19 3 20
19 4 2
19 5 9
19 6 18
19 7 7
19 8 17
19 9 13
19 10 5
19 11 1
19 12 17
19 13 8
19 14 20
19 15 20
19 16 1
19 17 6
19 18 3
20 0 15
20 1 2
20 2 8
20 3 11
20 4 9
20 5 4
20 6 20
20 7 14
20 8 11
20 9 20
20 10 2
20 11 14
20 12 1
20 13 17
20 14 18
20 15 19
20 16 8
20 17 13
20 18 4
20 19 1
21 0 18
21 1 2
21 2 2
21 3 3
21 4 4
21 5 1
21 6 10
21 7 12
21 8 2
21 9 11
21 10 5
21 11 3
21 12 15
21 13 18
21 14 8
21 15 4
21 16 17
21 17 13
21 18 20
21 19 8
21 20 15
22 0 20
22 1 1
22 2 20
22 3 10
22 4 7
22 5 17
22 6 8
22 7 15
22 8 1
22 9 14
22 10 6
22 11 16
22 12 3
22 13 19
22 14 15
22 15 8
22 16 2
22 17 5
22 18 10
22 19 6
22 20 12
22 21 7
23 0 9
23 1 1
23 2 20
23 3 20
23 4 11
23 5 9
23 6 17
23 7 3
23 8 2
23 9 12
23 10 19
23 11 18
23 12 2
23 13 3
23 14 4
23 15 2
23 16 20
23 17 18
23 18 18
23 19 18
23 20 14
23 21 19
23 22 1
24 0 2
24 1 9
24 2 1
24 3 11
24 4 7
24 5 7
24 6 18
24 7 6
24 8 19
24 9 15
24 10 4
24 11 4
24 12 1
24 13 20
24 14 9
24 15 4
24 16 12
24 17 11
24 18 17
24 19 10
24 20 9
24 21 16
24 22 14
24 23 4
25 0 20
25 1 15
25 2 2
25 3 15
25 4 17
25 5 20
25 6 9
25 7 13
25 8 13
25 9 16
25 10 6
25 11 20
25 12 2
25 13 15
25 14 8
25 15 8
25 16 20
25 17 16
25 18 5
25 19 9
25 20 14
25 21 6
25 22 4
25 23 4
25 24 3
26 0 9
26 1 6
26 2 16
26 3 15
26 4 7
26 5 20
26 6 1
26 7 16
26 8 8
26 9 3
26 10 15
26 11 6
26 12 18
26 13 10
26 14 6
26 15 1
26 16 1
26 17 13
26 18 15
26 19 10
26 20 15
26 21 11
26 22 13
26 23 18
26 24 16
26 25 18
27 0 15
27 1 18
27 2 3
27 3 8
27 4 4
27 5 11
27 6 1
27 7 20
27 8 1
27 9 4
27 10 12
27 11 5
27 12 19
27 13 16
27 14 4
27 15 15
27 16 6
27 17 8
27 18 19
27 19 15
27 20 11
27 21 20
27 22 16
27 23 15
27 24 10
27 25 14
27 26 16
28 0 12
28 1 18
28 2 17
28 3 9
28 4 14
28 5 11
28 6 4
28 7 18
28 8 4
28 9 3
28 10 10
28 11 15
28 12 7
28 13 3
28 14 15
28 15 8
28 16 3
28 17 5
28 18 17
28 19 12
28 20 8
28 21 11
28 22 11
28 23 4
28 24 7
28 25 17
28 26 20
28 27 15
29 0 15
29 1 1
29 2 15
29 3 20
29 4 6
29 5 4
29 6 17
29 7 5
29 8 3
29 9 10
29 10 1
29 11 5
29 12 6
29 13 2
29 14 16
29 15 18
29 16 5
29 17 7
29 18 20
29 19 4
29 20 3
29 21 4
29 22 20
29 23 13
29 24 13
29 25 8
29 26 11
29 27 17
29 28 4
30 0 2
30 1 2
30 2 6
30 3 8
30 4 15
30 5 2
30 6 4
30 7 3
30 8 1
30 9 19
30 10 8
30 11 19
30 12 3
30 13 1
30 14 13
30 15 6
30 16 18
30 17 15
30 18 6
30 19 7
30 20 19
30 21 10
30 22 18
30 23 8
30 24 10
30 25 1
30 26 1
30 27 5
30 28 15
30 29 19
31 0 14
31 1 1
31 2 5
31 3 8
31 4 2
31 5 3
31 6 11
31 7 12
31 8 4
31 9 12
31 10 12
31 11 9
31 12 7
31 13 1
31 14 12
31 15 16
31 16 6
31 17 13
31 18 19
31 19 19
31 20 20
31 21 19
31 22 20
31 23 14
31 24 8
31 25 2
31 26 19
31 27 12
31 28 9
31 29 8
31 30 8
32 0 19
32 1 3
32 2 13
32 3 5
32 4 20
32 5 17
32 6 9
32 7 4
32 8 12
32 9 18
32 10 3
32 11 11
32 12 18
32 13 8
32 14 17
32 15 2
32 16 11
32 17 13
32 18 19
32 19 16
32 20 15
32 21 16
32 22 12
32 23 16
32 24 3
32 25 5
32 26 11
32 27 5
32 28 20
32 29 5
32 30 16
32 31 16
33 0 17
33 1 12
33 2 19
33 3 9
33 4 3
33 5 20
33 6 14
33 7 4
33 8 5
33 9 8
33 10 9
33 11 12
33 12 9
33 13 11
33 14 6
33 15 14
33 16 17
33 17 20
33 18 1
33 19 14
33 20 5
33 21 2
33 22 15
33 23 13
33 24 17
33 25 5
33 26 7
33 27 10
33 28 17
33 29 6
33 30 15
33 31 8
33 32 18
34 0 4
34 1 4
34 2 4
34 3 12
34 4 5
34 5 14
34 6 9
34 7 12
34 8 4
34 9 10
34 10 9
34 11 18
34 12 19
34 13 4
34 14 1
34 15 20
34 16 4
34 17 2
34 18 9
34 19 9
34 20 6
34 21 6
34 22 12
34 23 4
34 24 7
34 25 11
34 26 18
34 27 19
34 28 11
34 29 10
34 30 11
34 31 14
34 32 9
34 33 3
35 0 16
35 1 10
35 2 4
35 3 7
35 4 15
35 5 14
35 6 11
35 7 20
35 8 20
35 9 15
35 10 13
35 11 5
35 12 17
35 13 3
35 14 9
35 15 19
35 16 17
35 17 10
35 18 14
35 19 12
35 20 20
35 21 5
35 22 20
35 23 15
35 24 8
35 25 8
35 26 12
35 27 6
35 28 20
35 29 6
35 30 20
35 31 3
35 32 18
35 33 15
35 34 5
36 0 8
36 1 10
36 2 16
36 3 20
36 4 2
36 5 9
36 6 11
36 7 4
36 8 4
36 9 13
36 10 8
36 11 13
36 12 3
36 13 12
36 14 18
36 15 2
36 16 10
36 17 1
36 18 14
36 19 19
36 20 9
36 21 10
36 22 19
36 23 8
36 24 8
36 25 14
36 26 3
36 27 3
36 28 9
36 29 4
36 30 2
36 31 18
36 32 1
36 33 11
36 34 11
36 35 9
